(declare-fun var0 () String)
(assert (RegexIn var0 (RegexConcat (RegexUnion (RegexUnion (Str2Reg "QQ") (Str2Reg "RR")) (RegexPlus (Str2Reg "SSS"))) (RegexConcat (RegexUnion (RegexStar (Str2Reg "O")) (RegexPlus (Str2Reg "P"))) (RegexConcat (RegexStar (RegexPlus (Str2Reg "NNN"))) (RegexConcat (RegexPlus (RegexUnion (Str2Reg "LLL") (Str2Reg "M"))) (RegexConcat (RegexPlus (RegexStar (Str2Reg "K"))) (RegexConcat (RegexUnion (RegexStar (Str2Reg "II")) (RegexPlus (Str2Reg "JJ"))) (RegexConcat (RegexStar (RegexUnion (Str2Reg "GGG") (Str2Reg "HH"))) (RegexConcat (RegexStar (RegexUnion (Str2Reg "E") (Str2Reg "FF"))) (RegexConcat (RegexUnion (RegexUnion (Str2Reg "A") (Str2Reg "BB")) (RegexUnion (Str2Reg "C") (Str2Reg "DDD"))) (RegexConcat (RegexPlus (RegexUnion (Str2Reg "y") (Str2Reg "z"))) (RegexConcat (RegexUnion (RegexStar (Str2Reg "ww")) (RegexStar (Str2Reg "xx"))) (RegexConcat (RegexPlus (RegexStar (Str2Reg "vvv"))) (RegexConcat (RegexUnion (RegexPlus (Str2Reg "t")) (RegexPlus (Str2Reg "uu"))) (RegexConcat (RegexStar (RegexPlus (Str2Reg "sss"))) (RegexConcat (RegexPlus (RegexStar (Str2Reg "r"))) (RegexConcat (RegexPlus (RegexStar (Str2Reg "q"))) (RegexConcat (RegexStar (RegexPlus (Str2Reg "pp"))) (RegexConcat (RegexPlus (RegexPlus (Str2Reg "ooo"))) (RegexConcat (RegexStar (RegexUnion (Str2Reg "mm") (Str2Reg "nn"))) (RegexConcat (RegexPlus (RegexPlus (Str2Reg "lll"))) (RegexConcat (RegexStar (RegexUnion (Str2Reg "j") (Str2Reg "kk"))) (RegexConcat (RegexUnion (RegexPlus (Str2Reg "hhh")) (RegexStar (Str2Reg "i"))) (RegexConcat (RegexPlus (RegexPlus (Str2Reg "g"))) (RegexConcat (RegexUnion (RegexUnion (Str2Reg "cc") (Str2Reg "dd")) (RegexUnion (Str2Reg "ee") (Str2Reg "fff"))) (RegexConcat (RegexPlus (RegexPlus (Str2Reg "bbb"))) (RegexConcat (RegexPlus (RegexUnion (Str2Reg "999") (Str2Reg "aaa"))) (RegexConcat (RegexPlus (RegexPlus (Str2Reg "8"))) (RegexConcat (RegexPlus (RegexPlus (Str2Reg "7"))) (RegexConcat (RegexStar (RegexPlus (Str2Reg "66"))) (RegexConcat (RegexStar (RegexStar (Str2Reg "55"))) (RegexConcat (RegexUnion (RegexUnion (Str2Reg "2") (Str2Reg "333")) (RegexPlus (Str2Reg "444"))) (RegexConcat (RegexPlus (RegexPlus (Str2Reg "111"))) (RegexStar (RegexPlus (Str2Reg "0")))))))))))))))))))))))))))))))))))))
(check-sat)